************************************************************************
file with basedata            : mm52_.bas
initial value random generator: 28575
************************************************************************
projects                      :  1
jobs (incl. supersource/sink ):  12
horizon                       :  85
RESOURCES
  - renewable                 :  2   R
  - nonrenewable              :  2   N
  - doubly constrained        :  0   D
************************************************************************
PROJECT INFORMATION:
pronr.  #jobs rel.date duedate tardcost  MPM-Time
    1     10      0       11        4       11
************************************************************************
PRECEDENCE RELATIONS:
jobnr.    #modes  #successors   successors
   0        1          3           1   2   3
   1        3          1          10
   2        3          2           5   7
   3        3          3           4   6   8
   4        3          2           7   9
   5        3          2           6   9
   6        3          1          10
   7        3          1          10
   8        3          1          11
   9        3          1          11
  10        3          1          11
  11        1          0        
************************************************************************
REQUESTS/DURATIONS:
jobnr. mode duration  R 1  R 2  R 3  R 4  E(W 1)  E(W 2)
------------------------------------------------------------------------
  0      1     0       0    0    0    0     0       0
  1      1     6       8    8    0    6    96      36
  2      1     4       5    4    0    6    36      24
  3      1     1       9    6    6    0    15       6
  4      1     1       6    6   10    0    12      10
  5      1     3       4    7    2    0    33       6
  6      1     2       7    6    3    0    26       6
  7      1     3       8    4    6    0    36      18
  8      1     3       6    8    6    0    42      18
  9      1     2       3    9    5    0    24      10
 10      1     2       5    6    0    4    22       8
 11      1     0       0    0    0    0     0       0
************************************************************************
RESOURCEAVAILABILITIES:
  R 1  R 2
   41   96
************************************************************************
RESOURCE LIMITS:
jobnr.  l(R 1)  u(R 1)  l(R 2)  u(R 2)
------------------------------------------------------------------------
  0        0       0       0       0
  1        8      16       3       6
  2        5       9       3       6
  3        8      15       3       6
  4        6      12       5      10
  5        6      11       1       2
  6        7      13       2       3
  7        6      12       3       6
  8        7      14       3       6
  9        7      12       3       5
 10        6      11       2       4
 11        0       0       0       0
************************************************************************
SCENARIOS:
------------------------------------------------------------------------
RESOURCE k = 1
s = 1: (0, 131, 33, 14, 16, 33, 20, 64, 53, 19, 20, 0)
s = 2: (0, 141, 24, 14, 13, 34, 17, 33, 42, 30, 22, 0)
s = 3: (0, 128, 25, 18, 13, 27, 21, 24, 49, 34, 17, 0)
s = 4: (0, 101, 50, 17, 15, 31, 28, 34, 65, 35, 13, 0)
s = 5: (0, 77, 36, 23, 14, 25, 35, 37, 29, 20, 25, 0)
s = 6: (0, 76, 38, 10, 18, 56, 35, 30, 39, 21, 19, 0)
s = 7: (0, 126, 49, 21, 15, 32, 16, 30, 32, 24, 15, 0)
s = 8: (0, 64, 20, 22, 8, 24, 32, 39, 45, 24, 13, 0)
s = 9: (0, 135, 28, 18, 9, 44, 26, 26, 66, 14, 18, 0)
s = 10: (0, 82, 31, 15, 13, 42, 31, 39, 32, 24, 39, 0)
s = 11: (0, 74, 24, 13, 11, 33, 33, 37, 70, 24, 17, 0)
s = 12: (0, 111, 34, 10, 14, 36, 25, 26, 65, 25, 24, 0)
s = 13: (0, 107, 27, 17, 12, 19, 29, 35, 38, 23, 24, 0)
s = 14: (0, 114, 40, 15, 14, 40, 20, 31, 73, 26, 19, 0)
s = 15: (0, 111, 47, 20, 9, 46, 36, 36, 23, 25, 25, 0)
s = 16: (0, 85, 41, 18, 14, 30, 28, 26, 35, 35, 20, 0)
s = 17: (0, 100, 65, 12, 12, 32, 24, 23, 47, 25, 22, 0)
s = 18: (0, 89, 25, 17, 12, 31, 28, 46, 29, 31, 14, 0)
s = 19: (0, 66, 40, 17, 15, 30, 29, 34, 28, 22, 14, 0)
s = 20: (0, 95, 39, 22, 9, 34, 15, 46, 41, 24, 22, 0)
s = 21: (0, 117, 49, 15, 11, 24, 37, 55, 40, 19, 16, 0)
s = 22: (0, 78, 29, 16, 11, 32, 30, 26, 34, 23, 17, 0)
s = 23: (0, 83, 43, 17, 15, 54, 16, 35, 45, 15, 13, 0)
s = 24: (0, 58, 41, 12, 10, 29, 46, 22, 38, 27, 21, 0)
s = 25: (0, 113, 34, 13, 19, 41, 23, 24, 35, 28, 21, 0)
s = 26: (0, 147, 61, 13, 8, 47, 30, 23, 37, 20, 17, 0)
s = 27: (0, 99, 38, 23, 16, 31, 30, 39, 45, 27, 16, 0)
s = 28: (0, 93, 32, 18, 8, 31, 29, 37, 39, 23, 28, 0)
s = 29: (0, 94, 31, 15, 14, 35, 40, 31, 34, 15, 14, 0)
s = 30: (0, 106, 35, 15, 12, 27, 23, 45, 54, 26, 23, 0)
s = 31: (0, 129, 33, 11, 15, 30, 32, 38, 32, 42, 20, 0)
s = 32: (0, 80, 31, 13, 15, 51, 26, 27, 42, 32, 17, 0)
s = 33: (0, 90, 43, 20, 13, 25, 27, 20, 42, 19, 24, 0)
s = 34: (0, 136, 30, 15, 8, 25, 39, 29, 49, 30, 22, 0)
s = 35: (0, 99, 22, 9, 16, 27, 15, 48, 39, 17, 24, 0)
s = 36: (0, 117, 27, 10, 16, 35, 27, 36, 33, 35, 28, 0)
s = 37: (0, 105, 28, 25, 10, 46, 22, 35, 51, 26, 22, 0)
s = 38: (0, 95, 26, 13, 10, 45, 21, 37, 36, 17, 29, 0)
s = 39: (0, 75, 43, 15, 23, 38, 34, 25, 33, 25, 16, 0)
s = 40: (0, 105, 53, 12, 14, 30, 30, 38, 37, 17, 17, 0)
s = 41: (0, 101, 34, 10, 18, 46, 38, 33, 37, 40, 13, 0)
s = 42: (0, 54, 43, 12, 11, 38, 20, 21, 30, 26, 25, 0)
s = 43: (0, 64, 37, 15, 13, 32, 29, 54, 44, 19, 17, 0)
s = 44: (0, 94, 29, 12, 15, 36, 22, 37, 45, 20, 18, 0)
s = 45: (0, 108, 31, 20, 13, 19, 25, 25, 57, 14, 15, 0)
s = 46: (0, 145, 30, 9, 12, 37, 29, 32, 36, 37, 20, 0)
s = 47: (0, 127, 24, 17, 7, 34, 20, 58, 49, 38, 19, 0)
s = 48: (0, 63, 47, 14, 14, 26, 20, 31, 45, 33, 23, 0)
s = 49: (0, 80, 61, 15, 9, 21, 20, 33, 27, 24, 34, 0)
s = 50: (0, 59, 24, 15, 17, 50, 21, 23, 36, 34, 29, 0)
s = 51: (0, 152, 22, 13, 7, 19, 28, 22, 41, 20, 29, 0)
s = 52: (0, 67, 45, 18, 15, 24, 17, 33, 33, 15, 15, 0)
s = 53: (0, 102, 21, 20, 13, 26, 25, 20, 45, 35, 16, 0)
s = 54: (0, 72, 37, 14, 14, 30, 34, 29, 26, 14, 22, 0)
s = 55: (0, 125, 28, 15, 9, 35, 21, 31, 32, 29, 25, 0)
s = 56: (0, 123, 23, 15, 7, 37, 32, 35, 37, 17, 18, 0)
s = 57: (0, 93, 41, 20, 11, 32, 36, 37, 25, 22, 23, 0)
s = 58: (0, 81, 22, 22, 16, 40, 26, 36, 45, 44, 17, 0)
s = 59: (0, 80, 43, 21, 14, 43, 30, 40, 54, 22, 12, 0)
s = 60: (0, 128, 26, 10, 12, 42, 29, 25, 42, 16, 30, 0)
s = 61: (0, 103, 40, 18, 9, 28, 36, 30, 25, 18, 20, 0)
s = 62: (0, 110, 49, 10, 7, 31, 24, 53, 28, 27, 18, 0)
s = 63: (0, 72, 41, 17, 11, 34, 41, 40, 42, 22, 24, 0)
s = 64: (0, 71, 49, 23, 8, 23, 26, 30, 36, 21, 28, 0)
s = 65: (0, 134, 34, 14, 13, 39, 28, 38, 41, 20, 24, 0)
s = 66: (0, 85, 34, 17, 10, 49, 31, 33, 47, 20, 21, 0)
s = 67: (0, 142, 37, 9, 10, 29, 27, 38, 60, 21, 25, 0)
s = 68: (0, 71, 49, 18, 20, 30, 31, 42, 38, 16, 26, 0)
s = 69: (0, 108, 41, 13, 12, 27, 22, 40, 45, 26, 20, 0)
s = 70: (0, 136, 31, 12, 15, 52, 34, 45, 33, 23, 13, 0)
s = 71: (0, 170, 34, 14, 11, 32, 18, 37, 27, 18, 28, 0)
s = 72: (0, 84, 27, 21, 11, 32, 25, 34, 46, 19, 12, 0)
s = 73: (0, 79, 24, 17, 7, 21, 26, 38, 46, 18, 30, 0)
s = 74: (0, 117, 42, 23, 13, 33, 30, 38, 38, 33, 18, 0)
s = 75: (0, 96, 34, 19, 16, 50, 22, 39, 41, 30, 28, 0)
s = 76: (0, 86, 26, 23, 14, 39, 30, 39, 48, 25, 41, 0)
s = 77: (0, 114, 40, 12, 10, 29, 40, 36, 49, 35, 23, 0)
s = 78: (0, 67, 28, 11, 14, 33, 36, 31, 41, 30, 15, 0)
s = 79: (0, 82, 44, 15, 7, 26, 15, 45, 34, 30, 22, 0)
s = 80: (0, 77, 35, 16, 10, 25, 25, 31, 34, 29, 18, 0)
s = 81: (0, 90, 26, 19, 14, 30, 29, 33, 46, 42, 22, 0)
s = 82: (0, 107, 36, 11, 10, 25, 23, 53, 25, 21, 34, 0)
s = 83: (0, 116, 43, 9, 13, 41, 18, 31, 40, 16, 27, 0)
s = 84: (0, 114, 51, 9, 14, 50, 31, 49, 33, 16, 17, 0)
s = 85: (0, 64, 43, 15, 13, 28, 18, 30, 47, 23, 26, 0)
s = 86: (0, 122, 30, 17, 14, 34, 30, 47, 39, 41, 26, 0)
s = 87: (0, 107, 29, 15, 18, 33, 31, 38, 48, 18, 13, 0)
s = 88: (0, 113, 37, 18, 12, 52, 21, 45, 39, 26, 17, 0)
s = 89: (0, 96, 48, 9, 20, 54, 29, 46, 38, 23, 20, 0)
s = 90: (0, 120, 22, 11, 12, 29, 38, 51, 41, 19, 25, 0)
s = 91: (0, 105, 33, 13, 7, 37, 34, 30, 35, 42, 17, 0)
s = 92: (0, 77, 48, 14, 11, 36, 22, 33, 40, 15, 26, 0)
s = 93: (0, 57, 35, 10, 18, 32, 26, 50, 47, 22, 24, 0)
s = 94: (0, 149, 38, 9, 12, 60, 31, 47, 35, 21, 18, 0)
s = 95: (0, 131, 42, 16, 10, 21, 37, 54, 50, 28, 24, 0)
s = 96: (0, 109, 19, 15, 14, 28, 18, 28, 34, 20, 18, 0)
s = 97: (0, 79, 44, 15, 8, 45, 25, 61, 36, 15, 32, 0)
s = 98: (0, 53, 45, 15, 11, 39, 21, 25, 69, 15, 28, 0)
s = 99: (0, 69, 35, 14, 14, 31, 31, 27, 53, 17, 16, 0)
s = 100: (0, 74, 38, 16, 11, 28, 39, 43, 33, 30, 21, 0)
s = 101: (0, 105, 33, 17, 9, 35, 25, 57, 58, 30, 28, 0)
s = 102: (0, 108, 68, 16, 12, 22, 22, 40, 55, 29, 16, 0)
s = 103: (0, 91, 21, 21, 18, 30, 35, 34, 40, 23, 22, 0)
s = 104: (0, 78, 24, 18, 12, 36, 22, 20, 54, 14, 29, 0)
s = 105: (0, 85, 42, 15, 17, 28, 34, 23, 30, 15, 27, 0)
s = 106: (0, 73, 47, 20, 12, 38, 28, 22, 45, 28, 26, 0)
s = 107: (0, 71, 47, 13, 13, 18, 18, 30, 40, 28, 31, 0)
s = 108: (0, 130, 34, 17, 9, 20, 24, 27, 51, 16, 21, 0)
s = 109: (0, 72, 33, 18, 15, 43, 39, 28, 33, 29, 13, 0)
s = 110: (0, 136, 38, 15, 7, 20, 35, 54, 35, 23, 22, 0)
s = 111: (0, 96, 49, 10, 10, 27, 31, 25, 23, 26, 27, 0)
s = 112: (0, 117, 37, 13, 22, 34, 25, 27, 35, 25, 39, 0)
s = 113: (0, 91, 35, 12, 15, 21, 28, 48, 36, 25, 20, 0)
s = 114: (0, 132, 31, 22, 11, 35, 31, 25, 59, 15, 25, 0)
s = 115: (0, 64, 41, 20, 15, 33, 36, 27, 35, 18, 16, 0)
s = 116: (0, 87, 35, 13, 10, 31, 40, 42, 38, 14, 16, 0)
s = 117: (0, 63, 26, 17, 8, 35, 21, 30, 52, 35, 29, 0)
s = 118: (0, 60, 40, 21, 14, 45, 16, 38, 55, 23, 31, 0)
s = 119: (0, 108, 25, 16, 9, 53, 16, 28, 55, 25, 25, 0)
s = 120: (0, 61, 36, 18, 12, 36, 21, 33, 56, 30, 20, 0)
s = 121: (0, 119, 40, 17, 15, 52, 22, 25, 39, 37, 20, 0)
s = 122: (0, 60, 42, 12, 18, 50, 27, 33, 40, 25, 22, 0)
s = 123: (0, 121, 45, 11, 10, 34, 21, 51, 30, 21, 17, 0)
s = 124: (0, 87, 24, 15, 11, 35, 36, 45, 43, 17, 29, 0)
s = 125: (0, 71, 36, 14, 12, 28, 17, 33, 51, 23, 29, 0)
s = 126: (0, 71, 24, 15, 16, 32, 21, 38, 67, 17, 35, 0)
s = 127: (0, 156, 40, 11, 10, 37, 29, 27, 47, 33, 22, 0)
s = 128: (0, 82, 25, 12, 21, 36, 33, 38, 41, 24, 29, 0)
s = 129: (0, 67, 45, 12, 11, 47, 23, 30, 34, 23, 17, 0)
s = 130: (0, 65, 35, 13, 20, 19, 30, 31, 57, 17, 17, 0)
s = 131: (0, 176, 33, 17, 15, 30, 23, 31, 59, 35, 23, 0)
s = 132: (0, 76, 36, 25, 8, 25, 17, 31, 35, 29, 18, 0)
s = 133: (0, 72, 33, 22, 13, 34, 23, 32, 39, 19, 24, 0)
s = 134: (0, 64, 48, 11, 10, 34, 28, 20, 45, 17, 20, 0)
s = 135: (0, 54, 39, 13, 8, 60, 28, 39, 31, 28, 29, 0)
s = 136: (0, 118, 40, 17, 11, 50, 35, 24, 36, 23, 26, 0)
s = 137: (0, 91, 56, 17, 9, 23, 21, 25, 56, 31, 32, 0)
s = 138: (0, 87, 23, 28, 13, 41, 26, 23, 42, 25, 33, 0)
s = 139: (0, 106, 39, 14, 18, 35, 23, 33, 38, 17, 29, 0)
s = 140: (0, 129, 59, 15, 11, 25, 28, 40, 55, 27, 21, 0)
s = 141: (0, 163, 51, 27, 14, 29, 38, 33, 38, 19, 28, 0)
s = 142: (0, 88, 25, 12, 7, 35, 14, 33, 38, 20, 29, 0)
s = 143: (0, 136, 31, 10, 11, 24, 26, 21, 54, 17, 22, 0)
s = 144: (0, 122, 55, 11, 12, 24, 23, 23, 31, 22, 13, 0)
s = 145: (0, 66, 46, 17, 9, 43, 21, 61, 43, 25, 15, 0)
s = 146: (0, 99, 26, 15, 22, 44, 37, 45, 34, 22, 20, 0)
s = 147: (0, 111, 64, 17, 11, 38, 21, 24, 47, 25, 19, 0)
s = 148: (0, 67, 26, 29, 16, 25, 28, 27, 27, 14, 18, 0)
s = 149: (0, 116, 31, 16, 10, 28, 26, 37, 26, 22, 24, 0)
s = 150: (0, 134, 25, 17, 10, 50, 15, 26, 38, 16, 16, 0)
s = 151: (0, 99, 25, 17, 12, 30, 30, 27, 55, 22, 28, 0)
s = 152: (0, 82, 36, 18, 9, 34, 31, 37, 40, 38, 32, 0)
s = 153: (0, 103, 49, 19, 13, 19, 24, 32, 33, 18, 17, 0)
s = 154: (0, 66, 46, 9, 12, 32, 25, 22, 33, 18, 14, 0)
s = 155: (0, 106, 22, 17, 9, 45, 16, 35, 23, 18, 25, 0)
s = 156: (0, 150, 54, 13, 16, 26, 30, 29, 31, 32, 15, 0)
s = 157: (0, 93, 57, 14, 8, 27, 24, 33, 43, 23, 13, 0)
s = 158: (0, 79, 27, 13, 7, 25, 30, 31, 41, 26, 24, 0)
s = 159: (0, 112, 35, 14, 11, 19, 27, 27, 32, 32, 19, 0)
s = 160: (0, 121, 61, 22, 12, 30, 50, 33, 33, 18, 23, 0)
s = 161: (0, 92, 52, 11, 8, 29, 24, 39, 34, 25, 36, 0)
s = 162: (0, 77, 25, 13, 12, 25, 24, 24, 42, 15, 14, 0)
s = 163: (0, 63, 35, 11, 14, 35, 27, 21, 26, 27, 38, 0)
s = 164: (0, 81, 25, 18, 10, 36, 23, 24, 29, 19, 27, 0)
s = 165: (0, 65, 24, 20, 11, 34, 15, 22, 34, 30, 23, 0)
s = 166: (0, 86, 48, 20, 11, 19, 21, 57, 35, 30, 27, 0)
s = 167: (0, 96, 48, 17, 17, 44, 15, 24, 52, 26, 13, 0)
s = 168: (0, 119, 44, 16, 10, 27, 21, 44, 51, 25, 22, 0)
s = 169: (0, 82, 27, 20, 8, 37, 19, 22, 33, 22, 21, 0)
s = 170: (0, 77, 41, 18, 16, 31, 29, 26, 25, 24, 26, 0)
s = 171: (0, 61, 35, 17, 13, 40, 27, 23, 60, 15, 35, 0)
s = 172: (0, 96, 21, 13, 15, 31, 25, 52, 34, 17, 19, 0)
s = 173: (0, 59, 31, 16, 8, 21, 18, 47, 30, 20, 17, 0)
s = 174: (0, 108, 35, 23, 13, 36, 30, 38, 54, 18, 22, 0)
s = 175: (0, 71, 31, 15, 11, 29, 25, 62, 42, 20, 23, 0)
s = 176: (0, 83, 26, 18, 9, 37, 30, 35, 32, 24, 18, 0)
s = 177: (0, 74, 36, 14, 11, 24, 34, 33, 48, 37, 35, 0)
s = 178: (0, 140, 23, 16, 14, 43, 38, 51, 38, 17, 18, 0)
s = 179: (0, 86, 31, 15, 20, 42, 19, 48, 28, 25, 17, 0)
s = 180: (0, 90, 37, 11, 13, 32, 25, 27, 24, 20, 20, 0)
s = 181: (0, 89, 31, 22, 8, 32, 37, 60, 46, 18, 20, 0)
s = 182: (0, 108, 28, 19, 12, 42, 42, 44, 48, 16, 20, 0)
s = 183: (0, 151, 42, 23, 12, 37, 17, 28, 28, 31, 18, 0)
s = 184: (0, 54, 39, 27, 8, 27, 26, 31, 74, 21, 42, 0)
s = 185: (0, 93, 40, 14, 9, 49, 23, 32, 43, 15, 16, 0)
s = 186: (0, 65, 28, 22, 13, 49, 35, 27, 30, 28, 22, 0)
s = 187: (0, 104, 21, 10, 17, 36, 31, 32, 69, 25, 21, 0)
s = 188: (0, 102, 23, 17, 10, 35, 22, 34, 46, 26, 17, 0)
s = 189: (0, 173, 27, 19, 9, 46, 20, 63, 40, 24, 21, 0)
s = 190: (0, 116, 24, 23, 15, 26, 28, 37, 52, 27, 26, 0)
s = 191: (0, 97, 46, 19, 13, 27, 27, 51, 42, 28, 27, 0)
s = 192: (0, 145, 31, 21, 18, 33, 41, 37, 41, 20, 22, 0)
s = 193: (0, 75, 39, 23, 8, 40, 36, 37, 51, 22, 17, 0)
s = 194: (0, 59, 32, 19, 11, 29, 23, 36, 79, 26, 18, 0)
s = 195: (0, 157, 29, 9, 11, 41, 19, 45, 43, 25, 33, 0)
s = 196: (0, 54, 39, 17, 16, 44, 24, 44, 40, 15, 27, 0)
s = 197: (0, 89, 37, 17, 17, 26, 30, 42, 30, 16, 24, 0)
s = 198: (0, 96, 53, 17, 8, 34, 23, 49, 34, 19, 29, 0)
s = 199: (0, 66, 34, 25, 9, 36, 16, 23, 47, 24, 24, 0)
s = 200: (0, 72, 28, 17, 9, 36, 29, 36, 39, 27, 32, 0)
------------------------------------------------------------------------
RESOURCE k = 2
s = 1: (0, 50, 22, 6, 13, 6, 5, 32, 23, 8, 8, 0)
s = 2: (0, 53, 16, 6, 11, 7, 4, 17, 18, 13, 8, 0)
s = 3: (0, 48, 17, 7, 11, 5, 5, 12, 21, 14, 6, 0)
s = 4: (0, 38, 34, 7, 13, 6, 7, 17, 28, 15, 5, 0)
s = 5: (0, 29, 24, 9, 11, 5, 8, 19, 13, 9, 9, 0)
s = 6: (0, 29, 26, 4, 15, 11, 8, 15, 17, 9, 7, 0)
s = 7: (0, 47, 33, 9, 12, 6, 4, 15, 14, 10, 6, 0)
s = 8: (0, 24, 14, 9, 7, 5, 8, 20, 20, 10, 5, 0)
s = 9: (0, 51, 19, 8, 8, 8, 6, 13, 29, 6, 7, 0)
s = 10: (0, 31, 21, 6, 11, 8, 8, 20, 14, 10, 15, 0)
s = 11: (0, 28, 16, 6, 9, 6, 8, 19, 30, 10, 7, 0)
s = 12: (0, 42, 23, 4, 12, 7, 6, 13, 28, 11, 9, 0)
s = 13: (0, 40, 18, 7, 10, 4, 7, 18, 17, 10, 9, 0)
s = 14: (0, 43, 27, 6, 12, 8, 5, 16, 32, 11, 7, 0)
s = 15: (0, 42, 31, 8, 8, 9, 9, 18, 10, 11, 10, 0)
s = 16: (0, 32, 28, 7, 12, 6, 7, 13, 15, 15, 8, 0)
s = 17: (0, 38, 43, 5, 10, 6, 6, 12, 21, 11, 8, 0)
s = 18: (0, 34, 17, 7, 10, 6, 7, 23, 13, 13, 5, 0)
s = 19: (0, 25, 27, 7, 12, 6, 7, 17, 12, 9, 5, 0)
s = 20: (0, 36, 26, 9, 8, 7, 4, 23, 18, 10, 8, 0)
s = 21: (0, 44, 33, 6, 10, 5, 9, 28, 17, 8, 6, 0)
s = 22: (0, 29, 20, 7, 10, 6, 7, 13, 15, 10, 6, 0)
s = 23: (0, 32, 29, 7, 12, 10, 4, 18, 19, 7, 5, 0)
s = 24: (0, 22, 27, 5, 8, 6, 11, 11, 16, 12, 8, 0)
s = 25: (0, 43, 23, 5, 16, 8, 6, 12, 15, 12, 8, 0)
s = 26: (0, 55, 41, 5, 6, 9, 7, 12, 16, 9, 6, 0)
s = 27: (0, 37, 26, 9, 13, 6, 7, 20, 20, 12, 6, 0)
s = 28: (0, 35, 21, 8, 7, 6, 7, 19, 17, 10, 11, 0)
s = 29: (0, 36, 21, 6, 12, 7, 10, 16, 15, 7, 5, 0)
s = 30: (0, 40, 23, 6, 10, 5, 6, 23, 23, 11, 9, 0)
s = 31: (0, 49, 22, 5, 12, 6, 8, 19, 14, 18, 8, 0)
s = 32: (0, 30, 21, 5, 12, 10, 6, 14, 18, 14, 6, 0)
s = 33: (0, 34, 29, 8, 11, 5, 7, 10, 18, 8, 9, 0)
s = 34: (0, 51, 20, 6, 7, 5, 9, 15, 21, 13, 8, 0)
s = 35: (0, 37, 15, 4, 13, 5, 4, 24, 17, 7, 9, 0)
s = 36: (0, 44, 18, 4, 13, 7, 7, 18, 14, 15, 10, 0)
s = 37: (0, 40, 19, 10, 9, 9, 5, 18, 22, 11, 8, 0)
s = 38: (0, 36, 17, 5, 8, 9, 5, 19, 16, 8, 11, 0)
s = 39: (0, 28, 29, 6, 20, 7, 8, 13, 15, 11, 6, 0)
s = 40: (0, 40, 36, 5, 12, 6, 7, 19, 16, 8, 6, 0)
s = 41: (0, 38, 23, 4, 15, 9, 9, 17, 16, 17, 5, 0)
s = 42: (0, 21, 29, 5, 10, 7, 5, 11, 13, 11, 10, 0)
s = 43: (0, 24, 25, 6, 11, 6, 7, 27, 19, 8, 6, 0)
s = 44: (0, 36, 19, 5, 13, 7, 6, 19, 20, 9, 7, 0)
s = 45: (0, 41, 21, 8, 11, 4, 6, 13, 25, 6, 6, 0)
s = 46: (0, 55, 20, 4, 10, 7, 7, 16, 16, 16, 8, 0)
s = 47: (0, 48, 16, 7, 6, 7, 5, 29, 21, 16, 7, 0)
s = 48: (0, 24, 32, 6, 12, 5, 5, 16, 20, 14, 9, 0)
s = 49: (0, 30, 41, 6, 8, 4, 5, 17, 12, 10, 13, 0)
s = 50: (0, 22, 16, 6, 14, 10, 5, 12, 16, 14, 11, 0)
s = 51: (0, 57, 15, 6, 6, 4, 7, 11, 18, 9, 11, 0)
s = 52: (0, 25, 30, 7, 13, 5, 4, 17, 14, 6, 6, 0)
s = 53: (0, 39, 14, 8, 11, 5, 6, 10, 19, 15, 6, 0)
s = 54: (0, 27, 25, 6, 12, 6, 8, 15, 11, 6, 8, 0)
s = 55: (0, 47, 19, 6, 8, 7, 5, 16, 14, 12, 9, 0)
s = 56: (0, 46, 16, 6, 6, 7, 8, 18, 16, 7, 7, 0)
s = 57: (0, 35, 27, 8, 10, 6, 9, 19, 11, 10, 9, 0)
s = 58: (0, 31, 15, 9, 14, 8, 6, 18, 20, 18, 6, 0)
s = 59: (0, 30, 29, 9, 11, 8, 7, 20, 23, 9, 5, 0)
s = 60: (0, 48, 17, 4, 10, 8, 7, 13, 18, 7, 11, 0)
s = 61: (0, 39, 27, 8, 8, 5, 9, 15, 11, 8, 8, 0)
s = 62: (0, 41, 33, 4, 6, 6, 6, 27, 12, 12, 7, 0)
s = 63: (0, 27, 27, 7, 9, 7, 10, 20, 18, 10, 9, 0)
s = 64: (0, 27, 33, 9, 7, 5, 6, 15, 16, 9, 11, 0)
s = 65: (0, 50, 23, 6, 11, 7, 7, 19, 18, 9, 9, 0)
s = 66: (0, 32, 23, 7, 8, 9, 8, 17, 21, 8, 8, 0)
s = 67: (0, 53, 25, 4, 8, 6, 7, 19, 26, 9, 10, 0)
s = 68: (0, 27, 33, 7, 17, 6, 8, 21, 16, 7, 10, 0)
s = 69: (0, 41, 28, 5, 10, 5, 5, 20, 19, 11, 8, 0)
s = 70: (0, 51, 21, 5, 12, 10, 8, 23, 14, 10, 5, 0)
s = 71: (0, 64, 23, 6, 9, 6, 5, 19, 12, 8, 10, 0)
s = 72: (0, 32, 18, 9, 9, 6, 6, 17, 20, 8, 5, 0)
s = 73: (0, 30, 16, 7, 6, 4, 6, 19, 20, 8, 11, 0)
s = 74: (0, 44, 28, 10, 11, 6, 7, 19, 17, 14, 7, 0)
s = 75: (0, 36, 23, 8, 14, 10, 5, 20, 18, 13, 11, 0)
s = 76: (0, 33, 18, 9, 11, 7, 7, 20, 21, 11, 15, 0)
s = 77: (0, 43, 27, 5, 8, 6, 10, 18, 21, 15, 9, 0)
s = 78: (0, 25, 19, 5, 12, 6, 9, 16, 18, 13, 6, 0)
s = 79: (0, 31, 29, 6, 6, 5, 4, 23, 15, 13, 8, 0)
s = 80: (0, 29, 24, 7, 8, 5, 6, 16, 15, 12, 7, 0)
s = 81: (0, 34, 17, 8, 12, 6, 7, 17, 20, 18, 8, 0)
s = 82: (0, 41, 24, 5, 9, 5, 6, 27, 11, 9, 13, 0)
s = 83: (0, 44, 29, 4, 11, 8, 4, 16, 17, 7, 10, 0)
s = 84: (0, 43, 34, 4, 11, 9, 7, 25, 14, 7, 6, 0)
s = 85: (0, 24, 29, 6, 11, 5, 4, 15, 21, 10, 10, 0)
s = 86: (0, 46, 20, 7, 12, 7, 7, 24, 17, 17, 10, 0)
s = 87: (0, 41, 19, 6, 15, 6, 8, 19, 21, 8, 5, 0)
s = 88: (0, 43, 25, 7, 10, 10, 5, 23, 17, 11, 6, 0)
s = 89: (0, 36, 32, 4, 16, 10, 7, 23, 17, 10, 8, 0)
s = 90: (0, 45, 15, 5, 10, 6, 9, 26, 18, 8, 9, 0)
s = 91: (0, 40, 22, 6, 6, 7, 8, 15, 15, 18, 6, 0)
s = 92: (0, 29, 32, 6, 9, 7, 5, 17, 17, 7, 10, 0)
s = 93: (0, 22, 23, 4, 15, 6, 6, 25, 20, 10, 9, 0)
s = 94: (0, 56, 26, 4, 10, 11, 7, 24, 15, 9, 7, 0)
s = 95: (0, 49, 28, 7, 8, 4, 9, 27, 22, 12, 9, 0)
s = 96: (0, 41, 13, 6, 12, 6, 5, 14, 15, 8, 7, 0)
s = 97: (0, 30, 29, 6, 7, 9, 6, 31, 16, 7, 12, 0)
s = 98: (0, 20, 30, 6, 9, 7, 5, 13, 30, 6, 11, 0)
s = 99: (0, 26, 23, 6, 11, 6, 7, 14, 23, 8, 6, 0)
s = 100: (0, 28, 26, 7, 9, 6, 9, 22, 14, 13, 8, 0)
s = 101: (0, 40, 22, 7, 7, 7, 6, 29, 25, 13, 11, 0)
s = 102: (0, 41, 46, 7, 10, 4, 6, 20, 24, 12, 6, 0)
s = 103: (0, 35, 14, 9, 15, 6, 8, 17, 18, 10, 8, 0)
s = 104: (0, 30, 16, 7, 10, 7, 6, 10, 23, 6, 11, 0)
s = 105: (0, 32, 28, 6, 14, 6, 8, 12, 13, 7, 10, 0)
s = 106: (0, 28, 32, 8, 10, 7, 7, 11, 19, 12, 10, 0)
s = 107: (0, 27, 31, 6, 11, 4, 4, 15, 17, 12, 11, 0)
s = 108: (0, 49, 23, 7, 8, 4, 6, 14, 22, 7, 8, 0)
s = 109: (0, 27, 22, 7, 13, 8, 9, 14, 14, 12, 5, 0)
s = 110: (0, 51, 25, 6, 6, 4, 8, 27, 15, 10, 8, 0)
s = 111: (0, 36, 33, 4, 8, 5, 8, 13, 10, 11, 10, 0)
s = 112: (0, 44, 25, 6, 18, 7, 6, 14, 15, 11, 15, 0)
s = 113: (0, 35, 24, 5, 13, 4, 7, 24, 16, 11, 8, 0)
s = 114: (0, 50, 21, 9, 9, 7, 8, 13, 26, 6, 9, 0)
s = 115: (0, 24, 28, 8, 13, 6, 9, 14, 15, 8, 6, 0)
s = 116: (0, 33, 23, 6, 9, 6, 10, 21, 17, 6, 6, 0)
s = 117: (0, 24, 17, 7, 7, 7, 5, 15, 23, 15, 11, 0)
s = 118: (0, 23, 27, 9, 12, 9, 4, 19, 24, 10, 11, 0)
s = 119: (0, 41, 17, 7, 7, 10, 4, 14, 24, 11, 10, 0)
s = 120: (0, 23, 24, 7, 10, 7, 5, 17, 24, 13, 8, 0)
s = 121: (0, 45, 27, 7, 13, 10, 5, 13, 17, 16, 8, 0)
s = 122: (0, 23, 28, 5, 15, 9, 7, 17, 17, 11, 8, 0)
s = 123: (0, 46, 30, 5, 8, 7, 5, 26, 13, 9, 7, 0)
s = 124: (0, 33, 16, 6, 9, 7, 9, 23, 19, 8, 11, 0)
s = 125: (0, 27, 24, 6, 10, 6, 4, 17, 22, 10, 11, 0)
s = 126: (0, 27, 16, 6, 14, 6, 5, 19, 29, 7, 13, 0)
s = 127: (0, 59, 27, 5, 8, 7, 7, 14, 20, 14, 8, 0)
s = 128: (0, 31, 17, 5, 18, 7, 8, 19, 18, 10, 11, 0)
s = 129: (0, 25, 30, 5, 9, 9, 6, 15, 15, 10, 6, 0)
s = 130: (0, 25, 23, 6, 16, 4, 7, 16, 25, 8, 7, 0)
s = 131: (0, 66, 22, 7, 13, 6, 6, 16, 26, 15, 9, 0)
s = 132: (0, 29, 24, 10, 7, 5, 4, 16, 15, 12, 7, 0)
s = 133: (0, 27, 22, 9, 11, 7, 6, 16, 17, 8, 9, 0)
s = 134: (0, 24, 32, 5, 9, 7, 7, 10, 19, 7, 8, 0)
s = 135: (0, 21, 26, 5, 7, 11, 7, 20, 13, 12, 11, 0)
s = 136: (0, 45, 27, 7, 9, 10, 8, 12, 16, 10, 10, 0)
s = 137: (0, 35, 38, 7, 8, 5, 5, 13, 24, 13, 12, 0)
s = 138: (0, 33, 16, 12, 11, 8, 6, 12, 18, 11, 12, 0)
s = 139: (0, 40, 26, 6, 15, 7, 6, 17, 16, 8, 11, 0)
s = 140: (0, 49, 40, 6, 9, 5, 7, 20, 24, 12, 8, 0)
s = 141: (0, 61, 34, 11, 11, 6, 9, 17, 16, 8, 11, 0)
s = 142: (0, 33, 17, 5, 6, 7, 4, 17, 17, 9, 11, 0)
s = 143: (0, 51, 21, 4, 9, 5, 6, 11, 24, 7, 8, 0)
s = 144: (0, 46, 37, 5, 10, 5, 6, 12, 13, 9, 5, 0)
s = 145: (0, 25, 31, 7, 8, 8, 5, 31, 19, 11, 6, 0)
s = 146: (0, 37, 17, 6, 18, 8, 9, 23, 15, 10, 8, 0)
s = 147: (0, 42, 43, 7, 10, 7, 5, 12, 20, 11, 7, 0)
s = 148: (0, 25, 18, 12, 13, 5, 7, 14, 12, 6, 7, 0)
s = 149: (0, 44, 21, 7, 8, 5, 6, 19, 12, 10, 9, 0)
s = 150: (0, 51, 17, 7, 9, 9, 4, 13, 17, 7, 6, 0)
s = 151: (0, 38, 17, 7, 10, 6, 7, 14, 24, 10, 11, 0)
s = 152: (0, 31, 24, 8, 8, 7, 8, 19, 17, 16, 12, 0)
s = 153: (0, 39, 33, 8, 11, 4, 6, 16, 14, 8, 6, 0)
s = 154: (0, 25, 31, 4, 10, 6, 6, 11, 15, 8, 5, 0)
s = 155: (0, 40, 15, 7, 8, 9, 4, 18, 10, 8, 9, 0)
s = 156: (0, 57, 36, 6, 14, 5, 7, 15, 13, 14, 6, 0)
s = 157: (0, 35, 38, 6, 6, 5, 6, 17, 19, 10, 5, 0)
s = 158: (0, 30, 18, 5, 6, 5, 7, 16, 18, 11, 9, 0)
s = 159: (0, 42, 24, 6, 9, 4, 7, 14, 14, 14, 7, 0)
s = 160: (0, 46, 41, 9, 10, 6, 12, 17, 14, 8, 9, 0)
s = 161: (0, 35, 35, 5, 6, 6, 6, 20, 15, 11, 14, 0)
s = 162: (0, 29, 17, 5, 10, 5, 6, 12, 18, 7, 5, 0)
s = 163: (0, 24, 23, 5, 12, 7, 7, 11, 11, 12, 14, 0)
s = 164: (0, 31, 17, 8, 8, 7, 6, 12, 13, 8, 10, 0)
s = 165: (0, 25, 16, 8, 9, 7, 4, 11, 15, 13, 9, 0)
s = 166: (0, 32, 32, 8, 9, 4, 5, 29, 15, 13, 10, 0)
s = 167: (0, 36, 32, 7, 14, 8, 4, 12, 23, 11, 5, 0)
s = 168: (0, 45, 30, 7, 8, 5, 5, 22, 22, 11, 8, 0)
s = 169: (0, 31, 18, 8, 7, 7, 5, 11, 14, 9, 8, 0)
s = 170: (0, 29, 28, 8, 13, 6, 7, 13, 11, 10, 10, 0)
s = 171: (0, 23, 24, 7, 11, 8, 7, 12, 26, 7, 13, 0)
s = 172: (0, 36, 14, 6, 12, 6, 6, 26, 15, 7, 7, 0)
s = 173: (0, 23, 21, 7, 7, 4, 4, 24, 13, 9, 6, 0)
s = 174: (0, 41, 24, 9, 11, 7, 7, 19, 23, 8, 8, 0)
s = 175: (0, 27, 21, 6, 9, 6, 6, 31, 18, 9, 9, 0)
s = 176: (0, 31, 18, 8, 8, 7, 7, 18, 14, 10, 7, 0)
s = 177: (0, 28, 24, 6, 9, 5, 8, 17, 21, 16, 13, 0)
s = 178: (0, 53, 16, 7, 12, 8, 9, 26, 17, 8, 7, 0)
s = 179: (0, 33, 21, 6, 17, 8, 5, 24, 12, 11, 7, 0)
s = 180: (0, 34, 25, 5, 11, 6, 6, 14, 11, 9, 8, 0)
s = 181: (0, 34, 21, 9, 7, 6, 9, 30, 20, 8, 8, 0)
s = 182: (0, 41, 19, 8, 10, 8, 10, 22, 21, 7, 7, 0)
s = 183: (0, 57, 28, 10, 10, 7, 4, 14, 12, 13, 7, 0)
s = 184: (0, 20, 26, 11, 7, 5, 6, 16, 32, 9, 15, 0)
s = 185: (0, 35, 27, 6, 8, 9, 6, 16, 19, 6, 6, 0)
s = 186: (0, 25, 19, 9, 11, 9, 9, 14, 13, 12, 8, 0)
s = 187: (0, 39, 14, 4, 15, 7, 7, 16, 30, 11, 8, 0)
s = 188: (0, 39, 16, 7, 9, 7, 5, 17, 20, 11, 6, 0)
s = 189: (0, 65, 18, 8, 7, 9, 5, 32, 17, 10, 8, 0)
s = 190: (0, 44, 16, 9, 13, 5, 7, 19, 23, 11, 10, 0)
s = 191: (0, 37, 31, 8, 11, 5, 7, 26, 18, 12, 10, 0)
s = 192: (0, 55, 21, 9, 15, 6, 10, 19, 18, 8, 8, 0)
s = 193: (0, 28, 26, 9, 7, 8, 9, 19, 22, 9, 6, 0)
s = 194: (0, 22, 21, 8, 9, 6, 6, 18, 34, 11, 7, 0)
s = 195: (0, 59, 19, 4, 9, 8, 5, 23, 19, 11, 12, 0)
s = 196: (0, 21, 26, 7, 13, 8, 6, 22, 17, 7, 10, 0)
s = 197: (0, 34, 25, 7, 14, 5, 7, 21, 13, 7, 9, 0)
s = 198: (0, 36, 36, 7, 7, 7, 6, 25, 15, 8, 11, 0)
s = 199: (0, 25, 23, 10, 8, 7, 4, 12, 21, 10, 9, 0)
s = 200: (0, 27, 19, 7, 8, 7, 7, 18, 17, 11, 12, 0)
************************************************************************
ES/LS-VALUES:
jobnr.   ES(i)    LS(i)
------------------------------------------------------------------------
  0        0        0
  1        0       70
  2        0       63
  3        0       71
  4        2       73
  5        7       71
  6       12       77
  7        7       75
  8        2       79
  9       12       81
 10       16       81
 11       19       85
************************************************************************
BIG-M-VALUES:
M1 = 44, M2 = 242
************************************************************************
